18,6	0,0	8,6	19,7	0,0	0,0	0,0	0,0	0,0	18,7
11,1	13,0	0,0	11,7	8,2	0,0	0,0	9,1	0,0	0,0
0,0	0,0	9,9	0,0	18,7	10,4	0,0	0,0	6,0	0,0
16,6	0,0	5,9	0,0	0,0	0,0	10,4	0,0	0,0	0,0
0,0	17,7	0,0	11,6	16,8	0,0	0,0	8,2	0,0	0,0
0,0	10,0	15,6	0,0	18,5	18,7	0,0	0,0	13,2	0,0
0,0	12,7	0,0	7,1	0,0	0,0	17,7	0,0	0,0	19,2
18,7	0,0	13,1	0,0	0,0	0,0	0,0	0,0	0,0	7,0
0,0	10,6	0,0	9,7	13,8	0,0	0,0	13,4	0,0	0,0
0,0	0,0	18,3	0,0	0,0	16,6	6,2	0,0	0,0	6,0
									
4,1	3,2	2,6	4,1	3,5	3,3	4,6	4,7	4,4	4,3
